Route #1: 0 6 1 62 30 21 5 0
Route #2: 0 45 29 48 57 13 46 34 0
Route #3: 0 35 52 15 36 47 61 22 28 0
Route #4: 0 4 27 37 60 20 54 19 0
Route #5: 0 17 51 3 16 33 2 0
Route #6: 0 63 23 49 44 32 50 39 0
Route #7: 0 12 58 10 38 11 0
Route #8: 0 40 9 31 25 55 18 0
Route #9: 0 8 59 14 53 7 26 0
Route #10: 0 24 56 41 64 42 43 0
Cost 987:
